--------------------------------------------------------------------------------(Solver execution current time: 0.00020432472229003906)
[INFO] Input Seed : 0
--------------------------------------------------------------------------------(Solver execution current time: 0.00024819374084472656)
[INFO] Input time limit : 30
--------------------------------------------------------------------------------(Solver execution current time: 0.00028324127197265625)
[INFO] Command line arguments read with no errors.
--------------------------------------------------------------------------------(Solver execution current time: 0.06208515167236328)
[INFO] Input file read with no errors.
--------------------------------------------------------------------------------(Solver execution current time: 0.06218266487121582)
[INFO] Starting solver.
--------------------------------------------------------------------------------(Solver execution current time: 0.06222224235534668)
[INFO] Starting construction
--------------------------------------------------------------------------------(Solver execution current time: 6.104133129119873)
[INFO] Finished construction
--------------------------------------------------------------------------------(Solver execution current time: 6.10423731803894)
[SOLUTION]
Basic Greedy Heuristic
Exec Time: 6.041910171508789
obj_value: -89; obj_routes: 35393.0
Route 1 : 44 80 144 180 10 52 27 13 127 56 12 156 112 110 37 152 72 83 49 183 84 184 149 113 172 137 
Route 2 : 22 122 62 162 51 151 14 1 101 16 17 117 41 70 57 114 141 85 34 116 47 20 134 96 147 157 170 185 120 8 40 140 108 196 71 171 
Route 3 : 46 69 30 91 68 59 146 130 191 81 88 169 78 6 181 58 168 178 23 75 77 159 3 175 9 103 109 158 123 31 177 188 33 106 133 63 131 48 148 163 
Route 4 : 92 95 192 195 66 53 73 173 153 166 19 119 60 160 65 165 
Route 5 : 82 18 182 7 118 107 43 143 86 186 4 104 11 111 21 121 
Route 6 : 94 100 200 194 29 129 64 164 98 24 198 124 90 190 
Route 7 : 5 105 35 135 
Route 8 : 99 199 89 61 189 161 32 132 
Route 9 : 79 179 
Route 10 : 39 139 93 193 
Route 11 : 76 87 176 187 25 54 154 125 
Route 12 : 15 28 115 128 
Route 13 : 
Route 14 : 
Route 15 : 
Route 16 : 
Route 17 : 
Route 18 : 
Route 19 : 
Route 20 : 
Route 21 : 

--------------------------------------------------------------------------------(Solver execution current time: 6.105384826660156)
[SOLUTION]
Solution after BasicGreedyLimitedHeterogeneousFleet
obj_value: -89; obj_routes: 35393.0
Route 1 : 44 80 144 180 10 52 27 13 127 56 12 156 112 110 37 152 72 83 49 183 84 184 149 113 172 137 
Route 2 : 22 122 62 162 51 151 14 1 101 16 17 117 41 70 57 114 141 85 34 116 47 20 134 96 147 157 170 185 120 8 40 140 108 196 71 171 
Route 3 : 46 69 30 91 68 59 146 130 191 81 88 169 78 6 181 58 168 178 23 75 77 159 3 175 9 103 109 158 123 31 177 188 33 106 133 63 131 48 148 163 
Route 4 : 92 95 192 195 66 53 73 173 153 166 19 119 60 160 65 165 
Route 5 : 82 18 182 7 118 107 43 143 86 186 4 104 11 111 21 121 
Route 6 : 94 100 200 194 29 129 64 164 98 24 198 124 90 190 
Route 7 : 5 105 35 135 
Route 8 : 99 199 89 61 189 161 32 132 
Route 9 : 79 179 
Route 10 : 39 139 93 193 
Route 11 : 76 87 176 187 25 54 154 125 
Route 12 : 15 28 115 128 
Route 13 : 
Route 14 : 
Route 15 : 
Route 16 : 
Route 17 : 
Route 18 : 
Route 19 : 
Route 20 : 
Route 21 : 

--------------------------------------------------------------------------------(Solver execution current time: 6.105605602264404)
[INFO] Starting metaheuristic
--------------------------------------------------------------------------------(Solver execution current time: 6.1083433628082275)
[INFO] AGES EXCLUDED
--------------------------------------------------------------------------------(Solver execution current time: 6.109859466552734)
[INFO] Starting LNS
--------------------------------------------------------------------------------(Solver execution current time: 6.499584913253784)
[SOLUTION]
LNS
IT: 40
Exec Time: 0.3873863220214844
obj_value: -89; obj_routes: 35393.0
Route 1 : 44 80 144 180 10 52 27 13 127 56 12 156 112 110 37 152 72 83 49 183 84 184 149 113 172 137 
Route 2 : 22 122 62 162 51 151 14 1 101 16 17 117 41 70 57 114 141 85 34 116 47 20 134 96 147 157 170 185 120 8 40 140 108 196 71 171 
Route 3 : 46 69 30 91 68 59 146 130 191 81 88 169 78 6 181 58 168 178 23 75 77 159 3 175 9 103 109 158 123 31 177 188 33 106 133 63 131 48 148 163 
Route 4 : 92 95 192 195 66 53 73 173 153 166 19 119 60 160 65 165 
Route 5 : 82 18 182 7 118 107 43 143 86 186 4 104 11 111 21 121 
Route 6 : 94 100 200 194 29 129 64 164 98 24 198 124 90 190 
Route 7 : 5 105 35 135 
Route 8 : 99 199 89 61 189 161 32 132 
Route 9 : 79 179 
Route 10 : 39 139 93 193 
Route 11 : 76 87 176 187 25 54 154 125 
Route 12 : 15 28 115 128 
Route 13 : 
Route 14 : 
Route 15 : 
Route 16 : 
Route 17 : 
Route 18 : 
Route 19 : 
Route 20 : 
Route 21 : 

--------------------------------------------------------------------------------(Solver execution current time: 6.502420902252197)
[INFO] Starting PartitionMaxRequestsHF
--------------------------------------------------------------------------------(Solver execution current time: 6.592612266540527)
[SOLUTION]
PartitionMaxRequestsHF
Exec Time: 0.09002804756164551
obj_value: -89; obj_routes: 35393.0
Route 1 : 44 80 144 180 10 52 27 13 127 56 12 156 112 110 37 152 72 83 49 183 84 184 149 113 172 137 
Route 2 : 22 122 62 162 51 151 14 1 101 16 17 117 41 70 57 114 141 85 34 116 47 20 134 96 147 157 170 185 120 8 40 140 108 196 71 171 
Route 3 : 46 69 30 91 68 59 146 130 191 81 88 169 78 6 181 58 168 178 23 75 77 159 3 175 9 103 109 158 123 31 177 188 33 106 133 63 131 48 148 163 
Route 4 : 92 95 192 195 66 53 73 173 153 166 19 119 60 160 65 165 
Route 5 : 82 18 182 7 118 107 43 143 86 186 4 104 11 111 21 121 
Route 6 : 94 100 200 194 29 129 64 164 98 24 198 124 90 190 
Route 7 : 5 105 35 135 
Route 8 : 99 199 89 61 189 161 32 132 
Route 9 : 79 179 
Route 10 : 39 139 93 193 
Route 11 : 76 87 176 187 25 54 154 125 
Route 12 : 15 28 115 128 
Route 13 : 
Route 14 : 
Route 15 : 
Route 16 : 
Route 17 : 
Route 18 : 
Route 19 : 
Route 20 : 
Route 21 : 

--------------------------------------------------------------------------------(Solver execution current time: 6.597990989685059)
[INFO] Starting OriginalPerturbation
--------------------------------------------------------------------------------(Solver execution current time: 30.012414693832397)
[WARNING] Time Limit Exceeded
--------------------------------------------------------------------------------(Solver execution current time: 30.012614727020264)
[WARNING] Searching current best solution.
--------------------------------------------------------------------------------(Solver execution current time: 30.015837907791138)
[INFO] Algorithm execution time : 30.01659393310547
--------------------------------------------------------------------------------(Solver execution current time: 30.017866373062134)
[SOLUTION]
Final Solution Verification
====================================
Constraints verification: 
Homogenous Capacity Constraint OK
Time Windwos Constraint OK
Pickup and Delivery Constraint OK
Fixed Requests Constraint OK
Limited Fleet Constraint OK
Heterogeneous Fleet Constraint OK
====================================
Obj Func verification: 
SOLUTION COST OK
------------------------------------
ROUTES TOTAL COST OK
------------------------------------
REQUESTS TOTAL COST OK
------------------------------------
OBJECTIVE VALUE: -89
ROUTES VALUE: 35393.0
------------------------------------

Best Solution: 
obj_value: -89; obj_routes: 35393.0
Route 1 : 44 80 144 180 10 52 27 13 127 56 12 156 112 110 37 152 72 83 49 183 84 184 149 113 172 137 
Route 2 : 22 122 62 162 51 151 14 1 101 16 17 117 41 70 57 114 141 85 34 116 47 20 134 96 147 157 170 185 120 8 40 140 108 196 71 171 
Route 3 : 46 69 30 91 68 59 146 130 191 81 88 169 78 6 181 58 168 178 23 75 77 159 3 175 9 103 109 158 123 31 177 188 33 106 133 63 131 48 148 163 
Route 4 : 92 95 192 195 66 53 73 173 153 166 19 119 60 160 65 165 
Route 5 : 82 18 182 7 118 107 43 143 86 186 4 104 11 111 21 121 
Route 6 : 94 100 200 194 29 129 64 164 98 24 198 124 90 190 
Route 7 : 5 105 35 135 
Route 8 : 99 199 89 61 189 161 32 132 
Route 9 : 79 179 
Route 10 : 39 139 93 193 
Route 11 : 76 87 176 187 25 54 154 125 
Route 12 : 15 28 115 128 
Route 13 : 
Route 14 : 
Route 15 : 
Route 16 : 
Route 17 : 
Route 18 : 
Route 19 : 
Route 20 : 
Route 21 : 

--------------------------------------------------------------------------------